out/bwp_7_12_1_lp.out
5
1 -0    3 1
-0 2    2 3
4 2    6 3
4 -0    6 0
4 1    6 1
3 2    3 4
-0 4    2 4
0 -0    0 0
-0 1    0 1
4 4    4 4
5 4    5 4
6 4    6 4
